/*********************************************
 * OPL 12.4 Data
 * Author: wningchu
 * Creation Date: 2014-01-28 at 10:04:50 AM
 *********************************************/

NbProducts = 4;
NbPeriods = 3;

Revenue = [ 10, 7, 8, 6 ];
Raw = [ 6, 4, 6, 3 ];
a = [ 0.5, 1, 2 ];
b = [ 0, -500, -3000 ];
MaxRaw = 3000;
MinPercent = 0.25;
MinProducts = { 1, 4 };
 